50
125
133
137
135
146
153
123
142
153
144
150
139
137
127
156
128
124
132
135
152
126
150
142
155
156
147
138
135
142
146
151
121
141
123
129
137
146
147
124
125
136
150
122
128
136
143
138
132
147
121
